Route #1: 41 47 37 7 43 35 33
Route #2: 51 27 5 8 29 10 44
Route #3: 2 48 38 46 13 17 22 26
Route #4: 9 16 34 32 19 15 49 50 12 23
Route #5: 4 45 14 39 24 31 3 28 11 21
Route #6: 42 20 18 30 1 36
Route #7: 6 25 40
Cost 759